s td 36 19 55
b 1 1 6 26
b 2 8 12 27 39
b 3 25 35 36 49
b 4 25 32 39 47 50
b 5 6 14 15 54
b 6 1 2 4 7 12 14 16 22 27 30 32 33 38 41 45 50 52 53 55
b 7 2 4 7 12 14 16 22 25 27 30 32 33 38 41 43 45 50 53 55
b 8 2 4 7 14 16 22 25 30 32 33 38 41 43 45 50 51 53 55
b 9 2 4 7 10 14 16 25 30 32 33 38 41 43 45 51 53 55
b 10 4 7 10 11 14 25 30 32 33 38 41 43 45 53 55
b 11 4 7 11 14 24 25 41 43 53
b 12 3 7 11 14 24 25 41 43
b 13 3 14 24 31 41 43
b 14 4 11 30 32 41 43 48
b 15 9 30 43 48
b 16 22 28 38 43 50 51 53
b 17 22 28 46 50
b 18 2 4 7 12 16 22 25 27 30 32 33 36 38 41 43 45 50 53
b 19 4 7 12 16 22 27 30 33 34 36 38 41 43 45 50 53
b 20 4 7 20 22 27 30 33 34 36 38 41 43 45 53
b 21 4 13 20 22 30 33 34 38 45
b 22 4 13 18 22 33 34 38 45
b 23 18 22 23 38 45
b 24 7 16 25 32 36 45 49
b 25 16 37 43 50 55
b 26 7 12 16 22 25 27 32 39 50
b 27 1 2 4 7 12 14 15 16 22 27 30 32 33 38 41 45 52 55
b 28 1 2 4 12 14 15 17 27 30 38 41 55
b 29 1 2 6 12 14 15 17 30 38 55
b 30 15 22 29 33
b 31 1 7 15 16 30 32 40 52
b 32 15 30 32 40 44 52
b 33 1 2 4 7 12 22 32 33 42 50 52 53
b 34 2 7 12 21 32 42 50 52
b 35 7 12 19 21 32 52
b 36 5
1 29
1 36
2 26
3 24
4 26
5 29
6 7
6 27
6 33
7 8
7 18
7 25
7 26
8 9
8 16
9 10
10 11
10 14
11 12
12 13
14 15
16 17
18 19
18 24
19 20
20 21
21 22
22 23
27 28
27 30
27 31
28 29
31 32
33 34
34 35
